100
120
100
99
97
97
97
94
94
93
93
93
92
92
92
91
91
90
90
90
88
88
88
88
87
87
87
86
86
86
86
85
85
84
84
83
83
81
81
80
79
79
79
79
77
74
74
73
72
72
70
70
67
67
66
66
66
65
64
64
64
63
62
61
59
58
54
53
53
52
51
47
47
45
44
43
43
42
41
41
41
39
39
39
39
37
37
36
35
35
34
34
33
33
33
32
31
31
30
30
30
30
